g3 0 1 0	# problem d4n12R6R7d01d05
 12 12 1 0 6	# vars, constraints, objectives, ranges, eqns
 4 1	# nonlinear constraints, objectives
 0 0	# network constraints: nonlinear, linear
 12 12 12	# nonlinear vars in constraints, objectives, both
 0 0 0 1	# linear network variables; functions; arith, flags
 0 0 0 0 0	# discrete variables: binary, integer, nonlinear (b,c,o)
 108 12	# nonzeros in Jacobian, gradients
 0 0	# max name lengths: constraints, variables
 0 0 0 0 0	# common exprs: b,c,o,c1,o1
b
0 0.34 2.62
0 0.14 2.24
0 0.21 2.03
0 0.38 2.4
0 0.1 2.23
0 0.22 2.3
0 0.95 2.64
0 0.23 2.19
0 0.56 2.77
0 0.61 2.75
0 0.64 2.72
0 0.88 2.55
r
2 115.511
2 534.648
2 3038.44
2 89.274
4 44.114
4 36.619
4 40.328
4 26.083
4 57.226
4 45.563
2 87.501
2 48.895
C0
o54
6
o2
o2
n6.33
v0
v11
o2
o2
n6.3
v1
v8
o2
o2
n6.17
v3
v11
o2
o2
n3
v4
v7
o2
o2
n7.5
v5
v9
o2
o2
n1.98
v6
v11
C1
o54
38
o2
o2
n4.33
v0
v11
o2
o2
n9.26
v1
v8
o2
o2
n4.47
v3
v11
o2
o2
n1.76
v4
v7
o2
o2
n2.02
v5
v9
o2
o2
n9.22
v6
v11
o16
o2
o2
o2
n4.95
v0
v0
v4
o16
o2
o2
o2
n8.88
v0
v2
v4
o2
o2
o2
n7.56
v0
v2
v10
o16
o2
o2
o2
n9.88
v0
v3
v6
o16
o2
o2
o2
n7.35
v0
v3
v10
o2
o2
o2
n8.23
v0
v3
v11
o2
o2
o2
n2.63
v0
v4
v8
o2
o2
o2
n6.88
v0
v10
v10
o2
o2
o2
n5.83
v1
v1
v9
o2
o2
o2
n8.81
v1
v2
v6
o2
o2
o2
n3.1
v1
v3
v6
o2
o2
o2
n5.67
v1
v6
v10
o2
o2
o2
n5.41
v1
v9
v10
o2
o2
o2
n0.1
v2
v4
v9
o2
o2
o2
n1.47
v2
v4
v11
o2
o2
o2
n4.35
v2
v8
v11
o2
o2
o2
n7.69
v3
v3
v3
o2
o2
o2
n3.02
v3
v3
v7
o2
o2
o2
n5.74
v3
v3
v11
o2
o2
o2
n2.82
v3
v6
v6
o2
o2
o2
n2.72
v3
v6
v9
o2
o2
o2
n7.14
v3
v6
v10
o2
o2
o2
n4.44
v3
v7
v10
o16
o2
o2
o2
n8.11
v3
v9
v11
o2
o2
o2
n7.16
v4
v5
v6
o2
o2
o2
n4.2
v4
v6
v10
o2
o2
o2
n7.88
v5
v5
v11
o2
o2
o2
n5.95
v6
v6
v10
o2
o2
o2
n8.74
v6
v9
v11
o2
o2
o2
n7.79
v8
v9
v9
o2
o2
o2
n5.71
v8
v9
v11
o2
o2
o2
n8.67
v10
v11
v11
C2
o54
181
o2
o2
n9.45
v0
v11
o2
o2
n4.67
v1
v8
o2
o2
n8.38
v3
v11
o2
o2
n9.71
v4
v7
o2
o2
n5.41
v5
v9
o2
o2
n8.78
v6
v11
o2
o2
o2
n5.3
v0
v0
v4
o2
o2
o2
n9.02
v0
v2
v4
o2
o2
o2
n1.38
v0
v2
v10
o2
o2
o2
n2.51
v0
v3
v6
o2
o2
o2
n0.44
v0
v3
v10
o2
o2
o2
n2.48
v0
v3
v11
o2
o2
o2
n0.95
v0
v4
v8
o16
o2
o2
o2
n9.89
v0
v10
v10
o2
o2
o2
n4.96
v1
v1
v9
o2
o2
o2
n3.3
v1
v2
v6
o2
o2
o2
n9.06
v1
v3
v6
o2
o2
o2
n9.66
v1
v6
v10
o2
o2
o2
n4.64
v1
v9
v10
o2
o2
o2
n9.09
v2
v4
v9
o2
o2
o2
n2.71
v2
v4
v11
o2
o2
o2
n1.2
v2
v8
v11
o2
o2
o2
n3.74
v3
v3
v3
o2
o2
o2
n5.95
v3
v3
v7
o2
o2
o2
n7.78
v3
v3
v11
o2
o2
o2
n6.78
v3
v6
v6
o2
o2
o2
n4.99
v3
v6
v9
o16
o2
o2
o2
n8.83
v3
v6
v10
o2
o2
o2
n2.27
v3
v7
v10
o2
o2
o2
n0.05
v3
v9
v11
o2
o2
o2
n5.89
v4
v5
v6
o2
o2
o2
n8.1
v4
v6
v10
o2
o2
o2
n5.71
v5
v5
v11
o2
o2
o2
n0.72
v6
v6
v10
o2
o2
o2
n1.24
v6
v9
v11
o16
o2
o2
o2
n2.46
v8
v9
v9
o2
o2
o2
n4.76
v8
v9
v11
o2
o2
o2
n5.6
v10
v11
v11
o2
o2
o2
o2
n1.95
v0
v0
v0
v3
o2
o2
o2
o2
n7.99
v0
v0
v0
v11
o2
o2
o2
o2
n5.21
v0
v0
v1
v6
o2
o2
o2
o2
n5.76
v0
v0
v3
v10
o2
o2
o2
o2
n0.09
v0
v0
v4
v6
o2
o2
o2
o2
n3.53
v0
v0
v4
v8
o2
o2
o2
o2
n0.07
v0
v0
v4
v11
o2
o2
o2
o2
n0.08
v0
v0
v7
v10
o2
o2
o2
o2
n0.11
v0
v0
v9
v9
o2
o2
o2
o2
n2.26
v0
v1
v2
v10
o2
o2
o2
o2
n4.05
v0
v1
v5
v5
o16
o2
o2
o2
o2
n4.89
v0
v1
v5
v7
o2
o2
o2
o2
n6.47
v0
v1
v5
v10
o2
o2
o2
o2
n9.56
v0
v1
v6
v6
o16
o2
o2
o2
o2
n4.15
v0
v1
v6
v11
o2
o2
o2
o2
n0.03
v0
v1
v9
v10
o2
o2
o2
o2
n7.37
v0
v1
v9
v11
o2
o2
o2
o2
n7.14
v0
v1
v10
v11
o16
o2
o2
o2
o2
n6.64
v0
v2
v3
v3
o16
o2
o2
o2
o2
n1.02
v0
v2
v4
v7
o2
o2
o2
o2
n4.8
v0
v2
v6
v8
o2
o2
o2
o2
n3.35
v0
v2
v7
v10
o2
o2
o2
o2
n0.19
v0
v2
v8
v9
o2
o2
o2
o2
n7.56
v0
v3
v4
v5
o2
o2
o2
o2
n0.85
v0
v3
v4
v11
o2
o2
o2
o2
n9.79
v0
v3
v5
v11
o2
o2
o2
o2
n5.31
v0
v3
v10
v10
o2
o2
o2
o2
n8.27
v0
v4
v6
v6
o2
o2
o2
o2
n0.21
v0
v4
v6
v10
o2
o2
o2
o2
n4.18
v0
v4
v11
v11
o2
o2
o2
o2
n9.98
v0
v5
v5
v5
o2
o2
o2
o2
n1.61
v0
v5
v6
v6
o2
o2
o2
o2
n9.01
v0
v5
v7
v8
o2
o2
o2
o2
n9.45
v0
v5
v10
v10
o2
o2
o2
o2
n1.57
v0
v6
v7
v9
o2
o2
o2
o2
n3.18
v0
v6
v7
v11
o2
o2
o2
o2
n9.8
v0
v6
v8
v9
o2
o2
o2
o2
n9.1
v0
v8
v9
v10
o2
o2
o2
o2
n5.04
v0
v8
v10
v11
o2
o2
o2
o2
n9.15
v1
v1
v3
v8
o2
o2
o2
o2
n2.89
v1
v1
v10
v10
o2
o2
o2
o2
n8.78
v1
v2
v2
v8
o2
o2
o2
o2
n7.3
v1
v2
v3
v4
o2
o2
o2
o2
n6
v1
v2
v3
v11
o2
o2
o2
o2
n3.88
v1
v2
v4
v6
o2
o2
o2
o2
n4.17
v1
v3
v5
v8
o2
o2
o2
o2
n7.94
v1
v3
v6
v11
o2
o2
o2
o2
n6.5
v1
v3
v8
v11
o2
o2
o2
o2
n7.42
v1
v3
v10
v11
o2
o2
o2
o2
n5.05
v1
v4
v4
v6
o2
o2
o2
o2
n6.08
v1
v4
v4
v7
o2
o2
o2
o2
n1.93
v1
v4
v6
v10
o2
o2
o2
o2
n7.27
v1
v4
v6
v11
o2
o2
o2
o2
n5.68
v1
v5
v6
v8
o2
o2
o2
o2
n3.57
v1
v5
v9
v11
o2
o2
o2
o2
n0.54
v1
v6
v7
v11
o2
o2
o2
o2
n2.59
v1
v6
v9
v9
o2
o2
o2
o2
n1.4
v1
v9
v10
v10
o2
o2
o2
o2
n4.38
v2
v2
v2
v2
o2
o2
o2
o2
n2.32
v2
v2
v2
v6
o2
o2
o2
o2
n0.48
v2
v2
v3
v10
o2
o2
o2
o2
n1.45
v2
v2
v4
v9
o2
o2
o2
o2
n0.29
v2
v2
v5
v7
o2
o2
o2
o2
n9.95
v2
v2
v7
v8
o2
o2
o2
o2
n4.75
v2
v2
v7
v9
o2
o2
o2
o2
n8.11
v2
v2
v7
v11
o2
o2
o2
o2
n2.82
v2
v3
v6
v10
o2
o2
o2
o2
n6.02
v2
v3
v7
v8
o2
o2
o2
v2
v3
v8
v8
o16
o2
o2
o2
o2
n2.03
v2
v3
v8
v11
o2
o2
o2
o2
n1.31
v2
v3
v11
v11
o2
o2
o2
o2
n6.5
v2
v4
v4
v4
o2
o2
o2
o2
n7.86
v2
v4
v4
v9
o2
o2
o2
o2
n3.84
v2
v4
v9
v9
o2
o2
o2
o2
n7.45
v2
v4
v10
v10
o2
o2
o2
o2
n0.51
v2
v5
v8
v11
o2
o2
o2
o2
n4.55
v2
v6
v8
v8
o2
o2
o2
o2
n1.99
v2
v6
v9
v10
o16
o2
o2
o2
o2
n5.84
v2
v7
v7
v9
o2
o2
o2
o2
n6.26
v2
v8
v9
v11
o2
o2
o2
o2
n4.7
v2
v8
v10
v10
o2
o2
o2
o2
n6.87
v2
v10
v10
v10
o2
o2
o2
o2
n0.98
v2
v11
v11
v11
o2
o2
o2
o2
n3.27
v3
v3
v3
v8
o2
o2
o2
o2
n6.32
v3
v3
v3
v10
o2
o2
o2
o2
n1.16
v3
v3
v5
v11
o16
o2
o2
o2
o2
n0.37
v3
v3
v6
v9
o2
o2
o2
o2
n0.87
v3
v3
v7
v8
o2
o2
o2
o2
n8.17
v3
v4
v4
v8
o2
o2
o2
o2
n6.38
v3
v4
v4
v9
o2
o2
o2
o2
n4.01
v3
v4
v5
v8
o2
o2
o2
o2
n2.92
v3
v5
v5
v6
o2
o2
o2
o2
n2.22
v3
v5
v6
v7
o16
o2
o2
o2
o2
n5.84
v3
v5
v7
v7
o2
o2
o2
o2
n9.95
v3
v5
v7
v11
o2
o2
o2
o2
n8.78
v3
v5
v9
v11
o2
o2
o2
o2
n2.5
v3
v6
v8
v8
o2
o2
o2
o2
n3.66
v3
v6
v9
v9
o2
o2
o2
o2
n6.32
v3
v7
v8
v8
o2
o2
o2
o2
n0.55
v3
v7
v8
v10
o2
o2
o2
o2
n0.13
v3
v7
v11
v11
o2
o2
o2
o2
n0.14
v3
v8
v9
v11
o2
o2
o2
o2
n9.4
v3
v9
v9
v9
o16
o2
o2
o2
o2
n6.53
v3
v9
v10
v10
o16
o2
o2
o2
o2
n4.55
v4
v4
v5
v7
o2
o2
o2
o2
n3.37
v4
v4
v6
v10
o2
o2
o2
o2
n8.1
v4
v4
v6
v11
o2
o2
o2
o2
n0.95
v4
v4
v7
v11
o2
o2
o2
o2
n1.15
v4
v4
v10
v11
o2
o2
o2
o2
n7.11
v4
v5
v5
v6
o2
o2
o2
o2
n4.57
v4
v5
v8
v8
o2
o2
o2
o2
n9.95
v4
v5
v8
v9
o2
o2
o2
o2
n5
v4
v5
v10
v11
o2
o2
o2
o2
n4.83
v4
v7
v7
v10
o2
o2
o2
o2
n1.18
v4
v7
v10
v10
o2
o2
o2
o2
n3.81
v4
v9
v11
v11
o2
o2
o2
o2
n0.88
v4
v10
v10
v10
o2
o2
o2
o2
n0.11
v5
v5
v6
v9
o2
o2
o2
o2
n3.61
v5
v5
v8
v11
o2
o2
o2
o2
n5.44
v5
v6
v6
v6
o2
o2
o2
o2
n9.62
v5
v6
v8
v10
o16
o2
o2
o2
o2
n3.21
v5
v7
v7
v8
o2
o2
o2
o2
n0.32
v5
v7
v8
v10
o2
o2
o2
o2
n5.07
v5
v7
v10
v10
o2
o2
o2
o2
n0.6
v5
v8
v8
v8
o2
o2
o2
o2
n3.96
v6
v6
v6
v8
o2
o2
o2
o2
n8.19
v6
v6
v6
v10
o2
o2
o2
o2
n1.24
v6
v6
v8
v9
o2
o2
o2
o2
n0.55
v6
v6
v10
v11
o2
o2
o2
o2
n0.82
v6
v7
v9
v9
o2
o2
o2
o2
n4.44
v6
v8
v8
v10
o16
o2
o2
o2
o2
n8.05
v6
v8
v10
v11
o2
o2
o2
o2
n8.6
v6
v9
v9
v11
o2
o2
o2
o2
n6.26
v6
v11
v11
v11
o2
o2
o2
o2
n4.78
v7
v7
v7
v8
o2
o2
o2
o2
n8.63
v7
v7
v10
v10
o2
o2
o2
o2
n7.53
v7
v10
v10
v11
o2
o2
o2
o2
n8.35
v7
v11
v11
v11
o2
o2
o2
o2
n7.86
v8
v8
v8
v11
o16
o2
o2
o2
o2
n4.82
v8
v8
v10
v11
o2
o2
o2
o2
n1.36
v8
v10
v10
v11
o2
o2
o2
o2
n8.61
v9
v11
v11
v11
o2
o2
o2
o2
n5.88
v10
v10
v11
v11
C3
o54
6
o16
o2
o2
n7.19
v0
v11
o16
o2
o2
n6.34
v1
v8
o2
o2
n4.72
v3
v11
o2
o2
n0.35
v4
v7
o2
o2
n4.65
v5
v9
o2
o2
n7.86
v6
v11
C4
n0
C5
n0
C6
n0
C7
n0
C8
n0
C9
n0
C10
n0
C11
n0
O0 0
o54
181
o2
o2
n2.48
v0
v11
o2
o2
n5.25
v1
v8
o2
o2
n5.57
v3
v11
o2
o2
n2
v4
v7
o2
o2
n4.64
v5
v9
o2
o2
n2.56
v6
v11
o2
o2
o2
n4.25
v0
v0
v4
o2
o2
o2
n0.44
v0
v2
v4
o2
o2
o2
n9.01
v0
v2
v10
o2
o2
o2
n3.74
v0
v3
v6
o2
o2
o2
n9.77
v0
v3
v10
o2
o2
o2
n2.98
v0
v3
v11
o2
o2
o2
n7.07
v0
v4
v8
o16
o2
o2
o2
n4.59
v0
v10
v10
o2
o2
o2
n4.61
v1
v1
v9
o2
o2
o2
n5.21
v1
v2
v6
o16
o2
o2
o2
n0.76
v1
v3
v6
o2
o2
o2
n7.22
v1
v6
v10
o2
o2
o2
n0.71
v1
v9
v10
o16
o2
o2
o2
n0.78
v2
v4
v9
o2
o2
o2
n7.16
v2
v4
v11
o2
o2
o2
n2.63
v2
v8
v11
o2
o2
o2
n2.39
v3
v3
v3
o2
o2
o2
n7.09
v3
v3
v7
o2
o2
o2
n9.47
v3
v3
v11
o2
o2
o2
n9.46
v3
v6
v6
o2
o2
o2
n5.44
v3
v6
v9
o2
o2
o2
n7.19
v3
v6
v10
o16
o2
o2
o2
n4.27
v3
v7
v10
o2
o2
o2
n9.09
v3
v9
v11
o2
o2
o2
n2.46
v4
v5
v6
o2
o2
o2
n7.94
v4
v6
v10
o2
o2
o2
n4.96
v5
v5
v11
o2
o2
o2
n6.84
v6
v6
v10
o2
o2
o2
n4.44
v6
v9
v11
o2
o2
o2
n4.44
v8
v9
v9
o2
o2
o2
n1.48
v8
v9
v11
o2
o2
o2
n9.6
v10
v11
v11
o2
o2
o2
o2
n8.66
v0
v0
v0
v3
o2
o2
o2
o2
n0.66
v0
v0
v0
v11
o2
o2
o2
o2
n6.33
v0
v0
v1
v6
o2
o2
o2
o2
n9.57
v0
v0
v3
v10
o2
o2
o2
o2
n2.77
v0
v0
v4
v6
o16
o2
o2
o2
o2
n6.39
v0
v0
v4
v8
o2
o2
o2
o2
n6.76
v0
v0
v4
v11
o2
o2
o2
o2
n4.29
v0
v0
v7
v10
o2
o2
o2
o2
n5.13
v0
v0
v9
v9
o2
o2
o2
o2
n0.4
v0
v1
v2
v10
o2
o2
o2
o2
n3.28
v0
v1
v5
v5
o2
o2
o2
o2
n2.96
v0
v1
v5
v7
o2
o2
o2
o2
n1.41
v0
v1
v5
v10
o2
o2
o2
o2
n9.84
v0
v1
v6
v6
o2
o2
o2
o2
n4.32
v0
v1
v6
v11
o2
o2
o2
o2
n8.97
v0
v1
v9
v10
o2
o2
o2
o2
n7.48
v0
v1
v9
v11
o2
o2
o2
o2
n5.89
v0
v1
v10
v11
o16
o2
o2
o2
o2
n7.3
v0
v2
v3
v3
o2
o2
o2
o2
n8.68
v0
v2
v4
v7
o2
o2
o2
o2
n8.45
v0
v2
v6
v8
o2
o2
o2
o2
n5.72
v0
v2
v7
v10
o16
o2
o2
o2
o2
n5.79
v0
v2
v8
v9
o2
o2
o2
o2
n6.47
v0
v3
v4
v5
o2
o2
o2
o2
n4.08
v0
v3
v4
v11
o2
o2
o2
o2
n0.62
v0
v3
v5
v11
o2
o2
o2
o2
n2.98
v0
v3
v10
v10
o2
o2
o2
o2
n6
v0
v4
v6
v6
o16
o2
o2
o2
o2
n0.35
v0
v4
v6
v10
o2
o2
o2
o2
n0.4
v0
v4
v11
v11
o2
o2
o2
o2
n1.48
v0
v5
v5
v5
o2
o2
o2
o2
n7.79
v0
v5
v6
v6
o2
o2
o2
o2
n7.31
v0
v5
v7
v8
o2
o2
o2
o2
n4.11
v0
v5
v10
v10
o2
o2
o2
o2
n9.2
v0
v6
v7
v9
o2
o2
o2
o2
n3.01
v0
v6
v7
v11
o2
o2
o2
o2
n3.21
v0
v6
v8
v9
o2
o2
o2
o2
n6.89
v0
v8
v9
v10
o2
o2
o2
o2
n1.66
v0
v8
v10
v11
o2
o2
o2
o2
n3.46
v1
v1
v3
v8
o2
o2
o2
o2
n4.81
v1
v1
v10
v10
o2
o2
o2
o2
n3.18
v1
v2
v2
v8
o2
o2
o2
o2
n0.41
v1
v2
v3
v4
o2
o2
o2
o2
n7.92
v1
v2
v3
v11
o2
o2
o2
o2
n4.01
v1
v2
v4
v6
o2
o2
o2
o2
n6.11
v1
v3
v5
v8
o16
o2
o2
o2
o2
n7.79
v1
v3
v6
v11
o2
o2
o2
o2
n4.68
v1
v3
v8
v11
o2
o2
o2
o2
n0.71
v1
v3
v10
v11
o2
o2
o2
o2
n3.18
v1
v4
v4
v6
o2
o2
o2
o2
n7.88
v1
v4
v4
v7
o2
o2
o2
o2
n0.29
v1
v4
v6
v10
o2
o2
o2
o2
n1.87
v1
v4
v6
v11
o2
o2
o2
o2
n8.15
v1
v5
v6
v8
o2
o2
o2
o2
n3.76
v1
v5
v9
v11
o16
o2
o2
o2
o2
n4.66
v1
v6
v7
v11
o16
o2
o2
o2
o2
n6.9
v1
v6
v9
v9
o2
o2
o2
o2
n9.24
v1
v9
v10
v10
o2
o2
o2
o2
n0.95
v2
v2
v2
v2
o16
o2
o2
o2
o2
n2.27
v2
v2
v2
v6
o2
o2
o2
o2
n9.25
v2
v2
v3
v10
o2
o2
o2
o2
n3.51
v2
v2
v4
v9
o2
o2
o2
o2
n7.16
v2
v2
v5
v7
o2
o2
o2
o2
n9.81
v2
v2
v7
v8
o2
o2
o2
o2
n4.27
v2
v2
v7
v9
o2
o2
o2
o2
n7.54
v2
v2
v7
v11
o2
o2
o2
o2
n8.27
v2
v3
v6
v10
o2
o2
o2
o2
n9.86
v2
v3
v7
v8
o2
o2
o2
o2
n3.29
v2
v3
v8
v8
o2
o2
o2
o2
n4.34
v2
v3
v8
v11
o2
o2
o2
o2
n0.53
v2
v3
v11
v11
o2
o2
o2
o2
n1.02
v2
v4
v4
v4
o16
o2
o2
o2
o2
n3.98
v2
v4
v4
v9
o2
o2
o2
o2
n6.52
v2
v4
v9
v9
o2
o2
o2
o2
n9.06
v2
v4
v10
v10
o2
o2
o2
o2
n4.15
v2
v5
v8
v11
o2
o2
o2
o2
n6.97
v2
v6
v8
v8
o2
o2
o2
o2
n5.7
v2
v6
v9
v10
o2
o2
o2
o2
n2.57
v2
v7
v7
v9
o2
o2
o2
o2
n4.92
v2
v8
v9
v11
o16
o2
o2
o2
o2
n8.67
v2
v8
v10
v10
o2
o2
o2
o2
n8.18
v2
v10
v10
v10
o16
o2
o2
o2
o2
n4.35
v2
v11
v11
v11
o2
o2
o2
o2
n2.59
v3
v3
v3
v8
o2
o2
o2
o2
n0.41
v3
v3
v3
v10
o2
o2
o2
o2
n6.84
v3
v3
v5
v11
o2
o2
o2
o2
n9.46
v3
v3
v6
v9
o2
o2
o2
o2
n5.08
v3
v3
v7
v8
o16
o2
o2
o2
o2
n3.75
v3
v4
v4
v8
o2
o2
o2
o2
n9.3
v3
v4
v4
v9
o2
o2
o2
o2
n8.25
v3
v4
v5
v8
o2
o2
o2
o2
n0.22
v3
v5
v5
v6
o2
o2
o2
o2
n2.12
v3
v5
v6
v7
o2
o2
o2
o2
n2.37
v3
v5
v7
v7
o2
o2
o2
o2
n6.05
v3
v5
v7
v11
o2
o2
o2
o2
n3.32
v3
v5
v9
v11
o2
o2
o2
o2
n8.63
v3
v6
v8
v8
o2
o2
o2
o2
n2.68
v3
v6
v9
v9
o2
o2
o2
o2
n9.18
v3
v7
v8
v8
o2
o2
o2
o2
n0.93
v3
v7
v8
v10
o2
o2
o2
o2
n0.22
v3
v7
v11
v11
o2
o2
o2
o2
n3.6
v3
v8
v9
v11
o2
o2
o2
o2
n7.14
v3
v9
v9
v9
o2
o2
o2
o2
n0.92
v3
v9
v10
v10
o16
o2
o2
o2
o2
n7.97
v4
v4
v5
v7
o2
o2
o2
o2
n8.42
v4
v4
v6
v10
o16
o2
o2
o2
o2
n1.11
v4
v4
v6
v11
o16
o2
o2
o2
o2
n8.71
v4
v4
v7
v11
o2
o2
o2
o2
n3.73
v4
v4
v10
v11
o2
o2
o2
o2
n9.73
v4
v5
v5
v6
o2
o2
o2
o2
n8.7
v4
v5
v8
v8
o2
o2
o2
o2
n9.87
v4
v5
v8
v9
o2
o2
o2
o2
n2.94
v4
v5
v10
v11
o2
o2
o2
o2
n5.15
v4
v7
v7
v10
o2
o2
o2
o2
n4.86
v4
v7
v10
v10
o2
o2
o2
o2
n8.88
v4
v9
v11
v11
o2
o2
o2
o2
n3.78
v4
v10
v10
v10
o2
o2
o2
o2
n9.14
v5
v5
v6
v9
o2
o2
o2
o2
n9.17
v5
v5
v8
v11
o2
o2
o2
o2
n4.17
v5
v6
v6
v6
o2
o2
o2
o2
n2.46
v5
v6
v8
v10
o2
o2
o2
o2
n1.28
v5
v7
v7
v8
o2
o2
o2
o2
n9.28
v5
v7
v8
v10
o2
o2
o2
o2
n9.4
v5
v7
v10
v10
o2
o2
o2
o2
n4.89
v5
v8
v8
v8
o2
o2
o2
o2
n0.6
v6
v6
v6
v8
o16
o2
o2
o2
o2
n0.67
v6
v6
v6
v10
o2
o2
o2
o2
n1.01
v6
v6
v8
v9
o2
o2
o2
o2
n4.46
v6
v6
v10
v11
o2
o2
o2
o2
n6.27
v6
v7
v9
v9
o16
o2
o2
o2
o2
n2.57
v6
v8
v8
v10
o2
o2
o2
o2
n2.02
v6
v8
v10
v11
o2
o2
o2
o2
n6.21
v6
v9
v9
v11
o2
o2
o2
o2
n4.54
v6
v11
v11
v11
o2
o2
o2
o2
n0.25
v7
v7
v7
v8
o2
o2
o2
o2
n2.06
v7
v7
v10
v10
o2
o2
o2
o2
n7.12
v7
v10
v10
v11
o2
o2
o2
o2
n1.86
v7
v11
v11
v11
o2
o2
o2
o2
n3.47
v8
v8
v8
v11
o2
o2
o2
o2
n3.64
v8
v8
v10
v11
o2
o2
o2
o2
n2.75
v8
v10
v10
v11
o16
o2
o2
o2
o2
n4.32
v9
v11
v11
v11
o2
o2
o2
o2
n1.18
v10
v10
v11
v11
k11
9
17
26
34
42
52
61
69
80
90
100
J0 12
0 2.63
1 -9.05
2 0.87
3 6.65
4 0.16
5 9.1
6 8.39
7 -5.59
8 1.07
9 1.37
10 7.24
11 3.8
J1 12
0 -5.32
1 -9.79
2 -2.36
3 5.15
4 4.98
5 4.7
6 6.85
7 8.39
8 0.66
9 7.6
10 3.23
11 3.6
J2 12
0 6.89
1 9.36
2 0.74
3 9.27
4 9.64
5 0.44
6 -8.91
7 1.78
8 6.81
9 1.09
10 -5.65
11 -7.88
J3 12
0 8.79
1 5.81
2 7.37
3 9.25
4 5.47
5 2.2
6 9.29
7 -4.54
8 4.79
9 2.84
10 8.23
11 -7.95
J4 6
0 3.31
2 0.97
3 7.47
4 5.87
8 6.5
11 5.88
J5 6
0 4.09
1 2.05
5 8.53
8 1.78
9 8.04
10 0.54
J6 6
0 0.05
4 8.37
5 8.02
8 2.04
9 8.1
10 2.02
J7 6
1 4.88
2 -3.92
6 1.65
8 9.05
9 -5.12
10 9.07
J8 6
2 9.19
3 8.88
5 1.89
6 9.71
7 5.8
10 4.62
J9 6
5 0.31
6 9.29
7 8.82
8 0.33
9 5.74
11 4.45
J10 12
0 5.18
1 7.05
2 9.72
3 4.94
4 6.43
5 9.98
6 2.66
7 3.11
8 8.66
9 3.7
10 -4.76
11 7.26
J11 12
0 3.21
1 -9.12
2 6.12
3 1.56
4 7.34
5 4.87
6 7.86
7 1.26
8 6.16
9 4.01
10 -5.33
11 4.44
G0 12
0 6.27
1 -5.47
2 3.87
3 2.53
4 6.25
5 9.33
6 3.15
7 5.19
8 2.95
9 -6.09
10 4.2
11 0.73
